15
0 61 37 22 84 93 77 55 81 86 60 89 11 78 15 
13 0 56 28 45 17 12 42 85 94 70 78 44 23 79 
51 26 0 45 92 48 61 11 93 12 32 37 30 84 28 
100 47 50 0 66 21 24 29 66 75 83 9 44 41 12 
59 23 20 94 0 64 21 39 96 54 83 33 98 74 68 
100 79 88 6 26 0 100 10 33 22 32 46 38 54 74 
45 100 98 14 2 96 0 43 46 81 21 52 63 10 21 
92 62 55 64 74 20 1 0 56 83 61 50 94 29 64 
87 90 20 96 1 10 48 60 0 7 66 75 72 74 83 
24 58 76 69 21 87 52 63 62 0 86 16 11 71 6 
62 71 67 32 77 98 68 97 30 81 0 72 5 90 46 
74 100 37 49 19 19 97 72 65 37 25 0 72 67 41 
47 81 39 50 64 53 84 96 75 29 73 45 0 90 23 
35 27 81 30 1 75 74 42 100 41 79 32 97 0 88 
65 79 49 97 92 91 76 27 49 48 80 13 12 3 0 
